1 3 100 21846.08
1 3 200 21847.98
1 3 300 21876.08
2 3 100 24346.48
2 3 200 24427.14
2 3 300 24688.42
3 3 100 23834.78
3 3 200 23949.27
3 3 300 24539.78
4 3 100 24063.92
4 3 200 23877.66
4 3 300 24124.51
5 3 100 23370.00
5 3 200 23322.25
5 3 300 23394.80
